NAME: instance_492
TYPE: TSP
DIMENSION: 20
EDGE_WEIGHT_TYPE: EUC_2D
NODE_COORD_SECTION
0 57.97 85.52
1 87.56 48.11
2 67.89 42.19
3 96.05 59.42
4 38.28 31.92
5 58.23 58.73
6 59.13 67.57
7 72.61 38.94
8 67.74 28.47
9 68.46 19.17
10 93.11 42.25
11 37.36 62.74
12 50.59 97.56
13 64.02 54.96
14 64.60 0.63
15 89.18 52.17
16 30.67 14.79
17 47.47 56.15
18 5.09 48.85
19 82.66 88.55
EOF
